(set-info :smt-lib-version 2.6)
(set-logic QF_LIA)
(set-info :source |
Alberto Griggio

|)
(set-info :category "crafted")
(set-info :status unsat)
(declare-fun v0 () Int)
(declare-fun v1 () Int)
(declare-fun v2 () Int)
(declare-fun v3 () Int)
(declare-fun v4 () Int)
(declare-fun v5 () Int)
(declare-fun v6 () Int)
(declare-fun v7 () Int)
(declare-fun v8 () Int)
(declare-fun s_0 () Int)
(declare-fun o_0 () Int)
(declare-fun s_1 () Int)
(declare-fun s_2 () Int)
(declare-fun o_1 () Int)
(declare-fun s_3 () Int)
(declare-fun s_4 () Int)
(declare-fun o_2 () Int)
(declare-fun s_5 () Int)
(declare-fun s_6 () Int)
(declare-fun o_3 () Int)
(declare-fun s_7 () Int)
(declare-fun o_4 () Int)
(declare-fun o_5 () Int)
(declare-fun o_6 () Int)
(declare-fun o_7 () Int)
(declare-fun o_8 () Int)
(declare-fun s_9 () Int)
(declare-fun o_9 () Int)
(declare-fun s_10 () Int)
(declare-fun o_10 () Int)
(declare-fun s_11 () Int)
(declare-fun o_11 () Int)
(declare-fun s_12 () Int)
(declare-fun o_12 () Int)
(declare-fun s_13 () Int)
(declare-fun o_13 () Int)
(declare-fun s_14 () Int)
(declare-fun o_14 () Int)
(declare-fun s_15 () Int)
(declare-fun o_15 () Int)
(declare-fun A_itev1 () Int)
(declare-fun A_itev2 () Int)
(assert (let ((?v_101 (- o_2)) (?v_100 (- s_3)) (?v_19 (- s_4)) (?v_99 (- o_3)) (?v_27 (- s_5)) (?v_26 (- s_6)) (?v_98 (- s_7)) (?v_97 (* v8 16)) (?v_96 (* A_itev2 128)) (?v_31 (* v1 2)) (?v_93 (* v2 4)) (?v_92 (* v3 8)) (?v_91 (* v4 16)) (?v_90 (* v5 32)) (?v_89 (* v6 64)) (?v_88 (* v7 128)) (?v_85 (* A_itev2 64)) (?v_80 (* A_itev2 32)) (?v_36 (* v3 2)) (?v_77 (* v4 4)) (?v_76 (* v5 8)) (?v_73 (* A_itev2 16)) (?v_68 (* A_itev2 8)) (?v_18 (* v5 2)) (?v_24 (* v6 4)) (?v_25 (* v7 8)) (?v_63 (* A_itev2 4)) (?v_58 (* A_itev2 2)) (?v_41 (* v8 256))) (let ((?v_46 (+ (+ ?v_88 ?v_41) ?v_89)) (?v_30 (+ ?v_98 ?v_97)) (?v_29 (+ (+ (+ ?v_24 ?v_25) ?v_26) ?v_27))) (let ((?v_28 (+ ?v_29 ?v_99)) (?v_23 (+ ?v_25 ?v_26)) (?v_22 (+ ?v_24 ?v_27)) (?v_21 (+ (+ (+ ?v_18 v4) ?v_19) ?v_100))) (let ((?v_20 (+ ?v_21 ?v_101)) (?v_17 (+ ?v_18 ?v_19)) (?v_1 (<= 16 v8))) (let ((?v_8 (not ?v_1)) (?v_7 (= A_itev2 A_itev1)) (?v_4 (* v8 2))) (let ((?v_6 (= (+ (- A_itev2) ?v_4) 0)) (?v_5 (<= 8 v8)) (?v_0 (+ (- A_itev1) ?v_4))) (let ((?v_3 (= ?v_0 16)) (?v_2 (= ?v_0 32)) (?v_9 (+ (* s_0 (- 8)) v1)) (?v_32 (* s_0 (- 16)))) (let ((?v_11 (+ (+ ?v_31 v0) ?v_32)) (?v_33 (* o_0 (- 16)))) (let ((?v_10 (+ ?v_11 ?v_33)) (?v_14 (* s_1 (- 4)))) (let ((?v_12 (+ ?v_14 v2)) (?v_13 (+ (* s_2 (- 2)) v3)) (?v_37 (* s_2 (- 4)))) (let ((?v_16 (+ (+ (+ ?v_36 v2) ?v_37) ?v_14)) (?v_38 (* o_1 (- 4)))) (let ((?v_15 (+ ?v_16 ?v_38)) (?v_42 (* s_7 (- 16)))) (let ((?v_35 (+ (+ (+ (+ (+ ?v_31 ?v_41) v0) ?v_42) ?v_32) ?v_33)) (?v_43 (* o_4 (- 16)))) (let ((?v_34 (+ ?v_35 ?v_43)) (?v_40 (+ (+ (+ (+ (+ (+ (+ (+ (+ ?v_77 ?v_76) ?v_36) v2) (* s_4 (- 4))) (* s_3 (- 4))) (* o_2 (- 4))) ?v_37) ?v_14) ?v_38))) (let ((?v_39 (+ (* o_5 (- 4)) ?v_40)) (?v_47 (* s_6 (- 16))) (?v_48 (* s_5 (- 16))) (?v_49 (* o_3 (- 16)))) (let ((?v_45 (+ (+ (+ (+ (+ (+ (+ (+ (+ ?v_46 ?v_31) v0) ?v_42) ?v_32) ?v_33) ?v_43) ?v_47) ?v_48) ?v_49)) (?v_50 (* o_6 (- 16)))) (let ((?v_44 (+ ?v_45 ?v_50)) (?v_52 (+ (+ (+ (+ (+ (+ (+ (+ (+ (+ (+ (+ (+ (+ (+ (+ (+ (+ (+ (+ (+ ?v_46 ?v_90) ?v_91) ?v_92) ?v_93) ?v_31) v0) ?v_42) ?v_32) ?v_33) ?v_43) ?v_47) ?v_48) ?v_49) ?v_50) (* s_4 (- 16))) (* s_3 (- 16))) (* o_2 (- 16))) (* s_2 (- 16))) (* s_1 (- 16))) (* o_1 (- 16))) (* o_5 (- 16))))) (let ((?v_51 (+ (* o_7 (- 16)) ?v_52)) (?v_54 (+ (* o_8 (- 16)) v7))) (let ((?v_53 (+ ?v_54 A_itev2)) (?v_55 (+ (+ (* s_9 (- 8)) ?v_54) A_itev2)) (?v_57 (+ (+ (+ (* o_8 (- 32)) (* v7 2)) (* s_9 (- 16))) v6))) (let ((?v_59 (+ ?v_57 (* o_9 (- 16))))) (let ((?v_56 (+ ?v_59 ?v_58)) (?v_60 (+ (+ (* s_10 (- 8)) ?v_59) ?v_58)) (?v_62 (+ (+ (+ (+ (+ (+ (* o_8 (- 64)) (* v7 4)) (* s_9 (- 32))) (* v6 2)) (* o_9 (- 32))) (* s_10 (- 16))) v5))) (let ((?v_64 (+ ?v_62 (* o_10 (- 16))))) (let ((?v_61 (+ ?v_64 ?v_63)) (?v_65 (+ (+ (* s_11 (- 8)) ?v_64) ?v_63)) (?v_67 (+ (+ (+ (+ (+ (+ (+ (+ (+ (* o_8 (- 128)) ?v_25) (* s_9 (- 64))) ?v_24) (* o_9 (- 64))) (* s_10 (- 32))) ?v_18) (* o_10 (- 32))) (* s_11 (- 16))) v4))) (let ((?v_69 (+ ?v_67 (* o_11 (- 16))))) (let ((?v_66 (+ ?v_69 ?v_68)) (?v_70 (+ (+ (* s_12 (- 8)) ?v_69) ?v_68)) (?v_72 (+ (+ (+ (+ (+ (+ (+ (+ (+ (+ (+ (+ (* o_8 (- 256)) (* v7 16)) (* s_9 (- 128))) (* v6 8)) (* o_9 (- 128))) (* s_10 (- 64))) (* v5 4)) (* o_10 (- 64))) (* s_11 (- 32))) (* v4 2)) (* o_11 (- 32))) (* s_12 (- 16))) v3))) (let ((?v_74 (+ ?v_72 (* o_12 (- 16))))) (let ((?v_71 (+ ?v_74 ?v_73)) (?v_75 (+ (+ (* s_13 (- 8)) ?v_74) ?v_73)) (?v_79 (+ (+ (+ (+ (+ (+ (+ (+ (+ (+ (+ (+ (+ (+ (+ (* o_8 (- 512)) (* v7 32)) (* s_9 (- 256))) (* v6 16)) (* o_9 (- 256))) (* s_10 (- 128))) ?v_76) (* o_10 (- 128))) (* s_11 (- 64))) ?v_77) (* o_11 (- 64))) (* s_12 (- 32))) ?v_36) (* o_12 (- 32))) (* s_13 (- 16))) v2))) (let ((?v_81 (+ ?v_79 (* o_13 (- 16))))) (let ((?v_78 (+ ?v_81 ?v_80)) (?v_82 (+ (+ (* s_14 (- 8)) ?v_81) ?v_80)) (?v_84 (+ (+ (+ (+ (+ (+ (+ (+ (+ (+ (+ (+ (+ (+ (+ (+ (+ (+ (* o_8 (- 1024)) (* v7 64)) (* s_9 (- 512))) (* v6 32)) (* o_9 (- 512))) (* s_10 (- 256))) (* v5 16)) (* o_10 (- 256))) (* s_11 (- 128))) (* v4 8)) (* o_11 (- 128))) (* s_12 (- 64))) (* v3 4)) (* o_12 (- 64))) (* s_13 (- 32))) (* v2 2)) (* o_13 (- 32))) (* s_14 (- 16))) v1))) (let ((?v_86 (+ ?v_84 (* o_14 (- 16))))) (let ((?v_83 (+ ?v_86 ?v_85)) (?v_87 (+ (+ (* s_15 (- 8)) ?v_86) ?v_85)) (?v_95 (+ (+ (+ (+ (+ (+ (+ (+ (+ (+ (+ (+ (+ (+ (+ (+ (+ (+ (+ (+ (+ (* o_8 (- 2048)) ?v_88) (* s_9 (- 1024))) ?v_89) (* o_9 (- 1024))) (* s_10 (- 512))) ?v_90) (* o_10 (- 512))) (* s_11 (- 256))) ?v_91) (* o_11 (- 256))) (* s_12 (- 128))) ?v_92) (* o_12 (- 128))) (* s_13 (- 64))) ?v_93) (* o_13 (- 64))) (* s_14 (- 32))) ?v_31) (* o_14 (- 32))) (* s_15 (- 16))) v0))) (let ((?v_94 (+ (+ (* o_15 (- 16)) ?v_95) ?v_96))) (and (and (and (and (and (and (or ?v_2 ?v_8) (or ?v_3 ?v_1)) (or ?v_2 ?v_3)) (or ?v_5 ?v_6)) (or (not ?v_5) ?v_7)) (or ?v_6 ?v_7)) (and (and (and (and (and (and (and (and (and (and (and (and (and (and (and (and (and (and (and (and (and (and (and (and (and (and (and (and (and (and (and (and (and (and (and (and (and (and (and (and (and (and (and (and (and (and (and (and (and (and (and (and (and (and (and (and (and (and (and (and (and (and (and (and (and (and (and (and (and (and (and (and (and (and (and (and (and (and (and (and (and (and (and (and (and (and (and (and (and (and (and (and (and (and (and (and (and (and (and (and (and (and (and (<= 0 v0) (not (<= 16 v0))) (and (<= 0 v1) (not (<= 16 v1)))) (and (<= 0 v2) (not (<= 16 v2)))) (and (<= 0 v3) (not (<= 16 v3)))) (and (<= 0 v4) (not (<= 16 v4)))) (and (<= 0 v5) (not (<= 16 v5)))) (and (<= 0 v6) (not (<= 16 v6)))) (and (<= 0 v7) (not (<= 16 v7)))) (and (<= 0 v8) ?v_8)) (and (not (<= 2 s_0)) (<= 0 s_0))) (and (<= 0 ?v_9) (not (<= 8 ?v_9)))) (= (<= 1 s_0) (not (<= v1 8)))) (and (<= 0 o_0) (<= o_0 1))) (and (<= 0 ?v_10) (not (<= 16 ?v_10)))) (= (not (<= ?v_11 16)) (= o_0 1))) (and (not (<= 4 s_1)) (<= 0 s_1))) (and (<= 0 ?v_12) (not (<= 4 ?v_12)))) (= (<= 1 s_1) (not (<= v2 4)))) (and (not (<= 8 s_2)) (<= 0 s_2))) (and (<= 0 ?v_13) (not (<= 2 ?v_13)))) (= (<= 1 s_2) (not (<= v3 2)))) (and (<= 0 o_1) (<= o_1 1))) (and (<= 0 ?v_15) (not (<= 4 ?v_15)))) (= (not (<= ?v_16 4)) (= o_1 1))) (and (not (<= 16 s_3)) (<= 0 s_3))) (and (<= s_3 v4) (not (<= 1 (- v4 s_3))))) (= (<= 1 s_3) (not (<= v4 1)))) (and (not (<= 32 s_4)) (<= 0 s_4))) (and (<= 0 ?v_17) (not (<= 1 ?v_17)))) (= (<= 1 s_4) (not (<= v5 0)))) (and (<= 0 o_2) (<= o_2 1))) (and (<= 0 ?v_20) (not (<= 1 ?v_20)))) (= (not (<= ?v_21 1)) (= o_2 1))) (and (not (<= 64 s_5)) (<= 0 s_5))) (and (<= 0 ?v_22) (not (<= 1 ?v_22)))) (= (<= 1 s_5) (not (<= v6 0)))) (and (not (<= 128 s_6)) (<= 0 s_6))) (and (<= 0 ?v_23) (not (<= 1 ?v_23)))) (= (<= 1 s_6) (not (<= v7 0)))) (and (<= 0 o_3) (<= o_3 1))) (and (<= 0 ?v_28) (not (<= 1 ?v_28)))) (= (not (<= ?v_29 1)) (= o_3 1))) (and (not (<= 256 s_7)) (<= 0 s_7))) (and (<= 0 ?v_30) (not (<= 1 ?v_30)))) (= (<= 1 s_7) (not (<= v8 0)))) (and (<= 0 o_4) (<= o_4 1))) (and (<= 0 ?v_34) (not (<= 16 ?v_34)))) (= (not (<= ?v_35 16)) (= o_4 1))) (and (<= 0 o_5) (<= o_5 1))) (and (<= 0 ?v_39) (not (<= 4 ?v_39)))) (= (not (<= ?v_40 4)) (= o_5 1))) (and (<= 0 o_6) (<= o_6 1))) (and (<= 0 ?v_44) (not (<= 16 ?v_44)))) (= (not (<= ?v_45 16)) (= o_6 1))) (and (<= 0 o_7) (<= o_7 1))) (and (<= 0 ?v_51) (not (<= 16 ?v_51)))) (= (not (<= ?v_52 16)) (= o_7 1))) (and (<= 0 o_8) (<= o_8 1))) (and (<= 0 ?v_53) (not (<= 16 ?v_53)))) (= (not (<= (+ A_itev2 v7) 16)) (= o_8 1))) (and (not (<= 2 s_9)) (<= 0 s_9))) (and (<= 0 ?v_55) (not (<= 8 ?v_55)))) (= (<= 1 s_9) (not (<= ?v_53 8)))) (and (<= 0 o_9) (<= o_9 1))) (and (<= 0 ?v_56) (not (<= 16 ?v_56)))) (= (not (<= (+ ?v_57 ?v_58) 16)) (= o_9 1))) (and (not (<= 2 s_10)) (<= 0 s_10))) (and (<= 0 ?v_60) (not (<= 8 ?v_60)))) (= (<= 1 s_10) (not (<= ?v_56 8)))) (and (<= 0 o_10) (<= o_10 1))) (and (<= 0 ?v_61) (not (<= 16 ?v_61)))) (= (not (<= (+ ?v_62 ?v_63) 16)) (= o_10 1))) (and (not (<= 2 s_11)) (<= 0 s_11))) (and (<= 0 ?v_65) (not (<= 8 ?v_65)))) (= (<= 1 s_11) (not (<= ?v_61 8)))) (and (<= 0 o_11) (<= o_11 1))) (and (<= 0 ?v_66) (not (<= 16 ?v_66)))) (= (not (<= (+ ?v_67 ?v_68) 16)) (= o_11 1))) (and (not (<= 2 s_12)) (<= 0 s_12))) (and (<= 0 ?v_70) (not (<= 8 ?v_70)))) (= (<= 1 s_12) (not (<= ?v_66 8)))) (and (<= 0 o_12) (<= o_12 1))) (and (<= 0 ?v_71) (not (<= 16 ?v_71)))) (= (not (<= (+ ?v_72 ?v_73) 16)) (= o_12 1))) (and (not (<= 2 s_13)) (<= 0 s_13))) (and (<= 0 ?v_75) (not (<= 8 ?v_75)))) (= (<= 1 s_13) (not (<= ?v_71 8)))) (and (<= 0 o_13) (<= o_13 1))) (and (<= 0 ?v_78) (not (<= 16 ?v_78)))) (= (not (<= (+ ?v_79 ?v_80) 16)) (= o_13 1))) (and (not (<= 2 s_14)) (<= 0 s_14))) (and (<= 0 ?v_82) (not (<= 8 ?v_82)))) (= (<= 1 s_14) (not (<= ?v_78 8)))) (and (<= 0 o_14) (<= o_14 1))) (and (<= 0 ?v_83) (not (<= 16 ?v_83)))) (= (not (<= (+ ?v_84 ?v_85) 16)) (= o_14 1))) (and (not (<= 2 s_15)) (<= 0 s_15))) (and (<= 0 ?v_87) (not (<= 8 ?v_87)))) (= (<= 1 s_15) (not (<= ?v_83 8)))) (and (<= 0 o_15) (<= o_15 1))) (and (<= 0 ?v_94) (not (<= 16 ?v_94)))) (= (not (<= (+ ?v_95 ?v_96) 16)) (= o_15 1))) (not (= (+ (+ (+ (+ (+ (+ (+ (+ (+ (+ (+ (+ (+ (+ (+ (+ (+ (+ (+ (+ (+ (+ (+ (+ (+ (+ (+ (+ (+ (+ (+ (+ (* o_8 128) ?v_97) (* s_9 64)) (* o_9 64)) (* s_10 32)) (* o_10 32)) (* s_11 16)) (* o_11 16)) (* s_12 8)) (* o_12 8)) (* s_13 4)) (* o_13 4)) (* s_14 2)) (* o_14 2)) s_15) o_15) ?v_98) (- s_0)) (- o_0)) (- o_4)) ?v_26) ?v_27) ?v_99) (- o_6)) ?v_19) ?v_100) ?v_101) (- s_2)) (- s_1)) (- o_1)) (- o_5)) (- o_7)) (* A_itev2 (- 8))) 0)))))))))))))))))))))))))))))))))))))
(check-sat)
(exit)
